0 0 0 0
0 1 0 0
0 2 0 0
0 3 1 1
0 4 0 5
0 5 0 1
0 6 0 5
0 7 0 6
0 8 0 5
0 9 0 6
0 10 0 8
0 11 0 6
0 12 0 13
0 13 0 1
0 14 0 9
0 15 0 10
0 16 1 8
0 17 0 10
0 18 1 6
0 19 1 11
0 20 0 16
0 21 0 13
0 22 0 10
0 23 0 13
0 24 0 12
0 25 0 11
0 26 0 13
0 27 0 17
0 28 0 18
0 29 0 18
0 30 0 17
0 31 0 21
